Problem:    Pro05
Rows:       7
Columns:    6
Non-zeros:  18
Status:     OPTIMAL
Objective:  z = 26 (MINimum)

   No.   Row name   St   Activity     Lower bound   Upper bound    Marginal
------ ------------ -- ------------- ------------- ------------- -------------
     1 z            B             26                             
     2 r[1]         NU            -4                          -4            -1 
     3 r[2]         NU           -12                         -12         < eps
     4 r[3]         NU           -10                         -10            -1 
     5 r[4]         B            -10                          -7 
     6 r[5]         NU           -12                         -12            -1 
     7 r[6]         NU            -4                          -4         < eps

   No. Column name  St   Activity     Lower bound   Upper bound    Marginal
------ ------------ -- ------------- ------------- ------------- -------------
     1 x[1]         B              4                             
     2 x[2]         B              8                             
     3 x[3]         B              2                             
     4 x[4]         B              8                             
     5 x[5]         B              4                             
     6 x[6]         NF             0                                     < eps

Karush-Kuhn-Tucker optimality conditions:

KKT.PE: max.abs.err = 0.00e+00 on row 0
        max.rel.err = 0.00e+00 on row 0
        High quality

KKT.PB: max.abs.err = 0.00e+00 on row 0
        max.rel.err = 0.00e+00 on row 0
        High quality

KKT.DE: max.abs.err = 0.00e+00 on column 0
        max.rel.err = 0.00e+00 on column 0
        High quality

KKT.DB: max.abs.err = 0.00e+00 on row 0
        max.rel.err = 0.00e+00 on row 0
        High quality

End of output
